letting n =  10
letting blocks =  [[1, 2], [1, 8], [1, 9], [1, 10], [2, 1], [2, 2], [2, 3], [2, 4], [2, 6], [2, 7], [3, 2], [3, 3], [3, 6], [3, 7], [3, 8], [3, 10], [4, 1], [4, 2], [4, 6], [4, 8], [4, 9], [5, 1], [5, 3], [5, 5], [5, 7], [5, 8], [6, 7], [7, 1], [7, 2], [7, 3], [7, 4], [7, 6], [7, 9], [8, 5], [8, 6], [8, 7], [8, 9], [8, 10], [9, 1], [9, 4], [9, 6], [9, 7], [9, 8], [9, 10], [10, 1], [10, 8], [10, 9], [10, 10]]
